Version identifier: 22.1.0.0 | 2022-03-09 | 1a383f8ce
CPXPARAM_Read_DataCheck                          1
Tried aggregator 3 times.
MIP Presolve eliminated 1384 rows and 433 columns.
MIP Presolve modified 48 coefficients.
Aggregator did 1011 substitutions.
Reduced MIP has 417 rows, 1076 columns, and 2584 nonzeros.
Reduced MIP has 1068 binaries, 8 generals, 0 SOSs, and 0 indicators.
Presolve time = 0.01 sec. (7.44 ticks)
Probing fixed 16 vars, tightened 0 bounds.
Probing time = 0.00 sec. (1.21 ticks)
Tried aggregator 2 times.
Detecting symmetries...
MIP Presolve eliminated 18 rows and 22 columns.
Aggregator did 6 substitutions.
Reduced MIP has 393 rows, 1048 columns, and 2492 nonzeros.
Reduced MIP has 1040 binaries, 8 generals, 0 SOSs, and 0 indicators.
Presolve time = 0.00 sec. (2.72 ticks)
Probing time = 0.00 sec. (0.98 ticks)
Clique table members: 2247.
MIP emphasis: balance optimality and feasibility.
MIP search method: dynamic search.
Parallel mode: deterministic, using up to 8 threads.
Root relaxation solution time = 0.02 sec. (3.89 ticks)

        Nodes                                         Cuts/
   Node  Left     Objective  IInf  Best Integer    Best Bound    ItCnt     Gap

      0     0        8.4808   307                      8.4808      351         
      0     0       14.0000   221                    Cuts: 63      684         
*     0+    0                           15.0000       14.0000             6.67%
      0     0       14.0000   201       15.0000      Cuts: 36     1000    6.67%
Detecting symmetries...

Repeating presolve.
Tried aggregator 3 times.
MIP Presolve eliminated 58 rows and 336 columns.
MIP Presolve modified 5 coefficients.
Aggregator did 69 substitutions.
Reduced MIP has 266 rows, 643 columns, and 1583 nonzeros.
Reduced MIP has 643 binaries, 0 generals, 0 SOSs, and 0 indicators.
Presolve time = 0.00 sec. (2.14 ticks)
Represolve time = 0.01 sec. (4.09 ticks)

Root node processing (before b&c):
  Real time             =    0.28 sec. (134.48 ticks)
Parallel b&c, 8 threads:
  Real time             =    0.00 sec. (0.00 ticks)
  Sync time (average)   =    0.00 sec.
  Wait time (average)   =    0.00 sec.
                          ------------
Total (root+branch&cut) =    0.28 sec. (134.48 ticks)
